
<<< setup


<<< generate

Version identifier: 12.10.0.0 | 2019-11-26 | 843d4de2ae
CPXPARAM_TimeLimit                               1200
Tried aggregator 3 times.
MIP Presolve eliminated 5152141 rows and 2917694 columns.
MIP Presolve modified 417526 coefficients.
Aggregator did 888 substitutions.
Reduced MIP has 90021 rows, 92968 columns, and 587404 nonzeros.
Reduced MIP has 92919 binaries, 0 generals, 0 SOSs, and 0 indicators.
Presolve time = 7.81 sec. (4665.73 ticks)
Probing fixed 2280 vars, tightened 0 bounds.
Probing time = 32.97 sec. (6853.28 ticks)
Tried aggregator 1 time.
Detecting symmetries...
MIP Presolve eliminated 2280 rows and 2280 columns.
Reduced MIP has 87741 rows, 90688 columns, and 572113 nonzeros.
Reduced MIP has 90639 binaries, 0 generals, 0 SOSs, and 0 indicators.
Presolve time = 0.78 sec. (410.86 ticks)
Probing time = 0.20 sec. (47.15 ticks)
Clique table members: 315442.
MIP emphasis: balance optimality and feasibility.
MIP search method: dynamic search.
Parallel mode: deterministic, using up to 4 threads.
Root relaxation solution time = 3.33 sec. (1342.82 ticks)

        Nodes                                         Cuts/
   Node  Left     Objective  IInf  Best Integer    Best Bound    ItCnt     Gap

*     0+    0                         5222.0000   134563.0000              --- 
      0     0    72379.0000   371     5222.0000    72379.0000     5267     --- 
*     0+    0                        32670.0000    72379.0000           121.55%
      0     2    72379.0000   114    32670.0000    72379.0000     5267  121.55%
Elapsed time = 69.84 sec. (28739.77 ticks, tree = 0.02 MB, solutions = 2)
      1     3    72379.0000   191    32670.0000    72379.0000     6269  121.55%
      2     4    72379.0000   315    32670.0000    72379.0000    12288  121.55%
      3     5    72379.0000   364    32670.0000    72379.0000    19774  121.55%
      4     4    72379.0000   269    32670.0000    72379.0000    10529  121.55%
      6     7    72379.0000   332    32670.0000    72379.0000    26800  121.55%
      7     8    72379.0000   409    32670.0000    72379.0000    33819  121.55%
      8     9    72379.0000   333    32670.0000    72379.0000    29648  121.55%
     10    12    72379.0000   351    32670.0000    72379.0000    40181  121.55%
     11    13    72379.0000   349    32670.0000    72379.0000    40381  121.55%
     17    16    72379.0000   318    32670.0000    72379.0000    43083  121.55%
Elapsed time = 142.56 sec. (46528.07 ticks, tree = 1.10 MB, solutions = 2)
     21    21    72379.0000   312    32670.0000    72379.0000    69892  121.55%
     27    14    72379.0000   272    32670.0000    72379.0000    66806  121.55%
     29    28    72379.0000   298    32670.0000    72379.0000    89958  121.55%
     33    24    72379.0000   279    32670.0000    72379.0000    82962  121.55%
     37    30    72379.0000   335    32670.0000    72379.0000   112762  121.55%
     40    33    72379.0000   274    32670.0000    72379.0000   114715  121.55%
     42    33    72379.0000   231    32670.0000    72379.0000   125720  121.55%
     43    37    72379.0000   337    32670.0000    72379.0000   137833  121.55%
     44    39    72379.0000   304    32670.0000    72379.0000   148575  121.55%
     45    43    72379.0000   232    32670.0000    72379.0000   160382  121.55%
Elapsed time = 205.22 sec. (66369.24 ticks, tree = 1.85 MB, solutions = 2)
     47    40    72379.0000   284    32670.0000    72379.0000   157465  121.55%
     50     3    72379.0000   328    32670.0000    72379.0000    11270  121.55%
     52    44    72379.0000   277    32670.0000    72379.0000   182850  121.55%
     57    52    72379.0000   197    32670.0000    72379.0000   213190  121.55%
     59    54    72379.0000   234    32670.0000    72379.0000   216547  121.55%
     63    56    72379.0000   260    32670.0000    72379.0000   226743  121.55%
     66    57    72379.0000   208    32670.0000    72379.0000   225566  121.55%
     67    58    72379.0000   236    32670.0000    72379.0000   232821  121.55%
     70    59    72379.0000   312    32670.0000    72379.0000   234164  121.55%
     72    48    72379.0000   269    32670.0000    72379.0000   201815  121.55%
Elapsed time = 248.47 sec. (80836.51 ticks, tree = 0.88 MB, solutions = 2)
     75    63    72379.0000   332    32670.0000    72379.0000   257064  121.55%
     77    64    72379.0000   261    32670.0000    72379.0000   257105  121.55%
     78    61    72379.0000   239    32670.0000    72379.0000   256298  121.55%
     79    65    72379.0000   232    32670.0000    72379.0000   262880  121.55%
     80    66    72379.0000   269    32670.0000    72379.0000   267765  121.55%
     82    74    72379.0000   266    32670.0000    72379.0000   286737  121.55%
     84    70    72379.0000   227    32670.0000    72379.0000   275600  121.55%
     89    84    72379.0000   224    32670.0000    72379.0000   304966  121.55%
     94    88    72379.0000   191    32670.0000    72379.0000   307740  121.55%
     97    72    72379.0000   217    32670.0000    72379.0000   288072  121.55%
Elapsed time = 313.05 sec. (96083.68 ticks, tree = 5.24 MB, solutions = 2)
    104    92    72379.0000   164    32670.0000    72379.0000   310403  121.55%
    114    95    72379.0000    77    32670.0000    72379.0000   313600  121.55%
    118    92    72379.0000   187    32670.0000    72379.0000   322443  121.55%
    121    96    72379.0000   105    32670.0000    72379.0000   316793  121.55%
    124    97    72379.0000    87    32670.0000    72379.0000   317835  121.55%
    131    82    infeasible          32670.0000    72379.0000   317305  121.55%
    133   107    infeasible          32670.0000    72379.0000   346417  121.55%
    136    95    72379.0000   290    32670.0000    72379.0000   328519  121.55%
    140    97    72379.0000   264    32670.0000    72379.0000   330248  121.55%
    162   114    infeasible          32670.0000    72379.0000   348349  121.55%
Elapsed time = 339.94 sec. (107294.06 ticks, tree = 12.17 MB, solutions = 2)
    186   116    72379.0000    46    32670.0000    72379.0000   348802  121.55%
    214    96    72379.0000   267    32670.0000    72379.0000   341499  121.55%
    235   123    72379.0000    71    32670.0000    72379.0000   370905  121.55%
    253   125    72379.0000    65    32670.0000    72379.0000   371913  121.55%
    290   125    72379.0000    66    32670.0000    72379.0000   372367  121.55%
    317   126    infeasible          32670.0000    72379.0000   373101  121.55%
    343   131    72379.0000   115    32670.0000    72379.0000   373535  121.55%
    364   128    72379.0000    50    32670.0000    72379.0000   373845  121.55%
    399   129    72379.0000    49    32670.0000    72379.0000   374140  121.55%
    408   122    infeasible          32670.0000    72379.0000   392836  121.55%
Elapsed time = 368.97 sec. (117354.17 ticks, tree = 9.17 MB, solutions = 2)
    414   139    infeasible          32670.0000    72379.0000   416068  121.55%
    418   123    72379.0000   169    32670.0000    72379.0000   394240  121.55%
    425   126    72379.0000    89    32670.0000    72379.0000   394736  121.55%
    440   126    72379.0000   284    32670.0000    72379.0000   402836  121.55%
    441   130    72379.0000   176    32670.0000    72379.0000   395663  121.55%
    457   147    72379.0000   142    32670.0000    72379.0000   414920  121.55%
    468   166    72379.0000   102    32670.0000    72379.0000   443444  121.55%
    488   166    72379.0000    61    32670.0000    72379.0000   443786  121.55%
    507   165    72379.0000   123    32670.0000    72379.0000   444232  121.55%
    533   165    72379.0000   109    32670.0000    72379.0000   444890  121.55%
Elapsed time = 419.84 sec. (128168.96 ticks, tree = 26.74 MB, solutions = 2)
    545   137    72379.0000   239    32670.0000    72379.0000   417433  121.55%
    569   168    72379.0000   112    32670.0000    72379.0000   447002  121.55%
    606   163    72379.0000   290    32670.0000    72379.0000   449291  121.55%
    640   172    72379.0000    97    32670.0000    72379.0000   448043  121.55%
    676   172    72379.0000    99    32670.0000    72379.0000   448137  121.55%
    724   162    72379.0000    97    32670.0000    72379.0000   446511  121.55%
    766   169    72379.0000   298    32670.0000    72379.0000   454888  121.55%
    790   145    72379.0000   265    32670.0000    72379.0000   437502  121.55%
    867   166    72379.0000    76    32670.0000    72379.0000   453396  121.55%
    906   179    infeasible          32670.0000    72379.0000   457627  121.55%
Elapsed time = 461.45 sec. (138051.14 ticks, tree = 36.84 MB, solutions = 2)
    965   162    72379.0000    90    32670.0000    72379.0000   448893  121.55%
   1042   161    72379.0000    94    32670.0000    72379.0000   449097  121.55%
   1125   196    infeasible          32670.0000    72379.0000   466627  121.55%
   1191   189    72379.0000    86    32670.0000    72379.0000   466995  121.55%
   1260   190    infeasible          32670.0000    72379.0000   473931  121.55%
   1291   190    72379.0000   116    32670.0000    72379.0000   467688  121.55%
*  1303+  185                        52925.0000    72379.0000            36.76%
   1326   190    infeasible          52925.0000    72379.0000   468361   36.76%
*  1349+  185                        64756.0000    72379.0000            11.77%
   1368   195    72379.0000   105    64756.0000    72379.0000   475811   11.77%
   1399   186    72379.0000   116    64756.0000    72379.0000   476598   11.77%
   1446   186    72379.0000    95    64756.0000    72379.0000   477755   11.77%
Elapsed time = 483.24 sec. (147743.95 ticks, tree = 33.98 MB, solutions = 4)
   1516   191    infeasible          64756.0000    72379.0000   477425   11.77%
   1570   184    72379.0000   107    64756.0000    72379.0000   478885   11.77%
   1627   198    72379.0000   114    64756.0000    72379.0000   481656   11.77%
   1666   197    72379.0000    79    64756.0000    72379.0000   496753   11.77%
   1709   199    infeasible          64756.0000    72379.0000   497388   11.77%
   1752   211    72379.0000   237    64756.0000    72379.0000   495499   11.77%
   1787   197    72379.0000   117    64756.0000    72379.0000   495505   11.77%
   1831   211    72379.0000    84    64756.0000    72379.0000   499521   11.77%
   1878   203    72379.0000   110    64756.0000    72379.0000   506337   11.77%
   2080   217    72379.0000   133    64756.0000    72379.0000   511318   11.77%
Elapsed time = 511.77 sec. (160404.82 ticks, tree = 50.49 MB, solutions = 4)
   2227   234    72379.0000   215    64756.0000    72379.0000   527690   11.77%
*  2344+  232                        68857.0000    72379.0000             5.11%
   2392   236    72379.0000    93    68857.0000    72379.0000   535064    5.11%
   2549   272    72379.0000   101    68857.0000    72379.0000   552267    5.11%
*  2562+  258                        70776.0000    72379.0000             2.26%
   2719   282    72379.0000   105    70776.0000    72379.0000   555439    2.26%
   2907   300    72379.0000   105    70776.0000    72379.0000   571480    2.26%
   3078   328    72379.0000   100    70776.0000    72379.0000   581577    2.26%
   3251   363    72379.0000   101    70776.0000    72379.0000   597763    2.26%
   3519   374    72379.0000    84    70776.0000    72379.0000   599725    2.26%
   3681   368    72379.0000   109    70776.0000    72379.0000   609369    2.26%
*  3837+  353                        72379.0000    72379.0000             0.00%
   3849   406    72379.0000   123    72379.0000    72379.0000   618898    0.00%
Elapsed time = 597.58 sec. (198865.95 ticks, tree = 150.01 MB, solutions = 7)

Cover cuts applied:  1
Implied bound cuts applied:  332

Root node processing (before b&c):
  Real time             =   69.99 sec. (28815.14 ticks)
Parallel b&c, 4 threads:
  Real time             =  531.50 sec. (173265.53 ticks)
  Sync time (average)   =  112.94 sec.
  Wait time (average)   =    0.00 sec.
                          ------------
Total (root+branch&cut) =  601.49 sec. (202080.67 ticks)

<<< solve


OBJECTIVE: 72379

<<< post process


<<< done

